NAME        output_cplex_2
ROWS
 N  obj
 G  HiGHS_R0
 G  HiGHS_R1
 G  HiGHS_R2
 G  HiGHS_R3
 G  HiGHS_R4
 G  HiGHS_R5
 G  HiGHS_R6
 G  HiGHS_R7
 E  HiGHS_R8
 G  HiGHS_R9
 G  HiGHS_R10
 E  HiGHS_R11
 G  HiGHS_R12
 G  HiGHS_R13
 G  HiGHS_R14
 G  HiGHS_R15
 G  HiGHS_R16
 G  HiGHS_R17
 G  HiGHS_R18
 G  HiGHS_R19
 G  HiGHS_R20
 G  HiGHS_R21
 E  HiGHS_R22
 G  HiGHS_R23
 G  HiGHS_R24
 G  HiGHS_R25
 G  HiGHS_R26
 G  HiGHS_R27
 G  HiGHS_R28
 G  HiGHS_R29
 G  HiGHS_R30
 G  HiGHS_R31
 E  HiGHS_R32
 G  HiGHS_R33
 G  HiGHS_R34
 G  HiGHS_R35
COLUMNS
    MARK0000  'MARKER'                 'INTORG'
    X9        obj       1
    X9        HiGHS_R8  1
    X9        HiGHS_R34  -1
    X9        HiGHS_R35  1
    X0        HiGHS_R0  -1
    X0        HiGHS_R1  1
    X0        HiGHS_R2  -1
    X0        HiGHS_R3  1
    X0        HiGHS_R8  -3
    X0        HiGHS_R11  1
    X3        HiGHS_R2  -1
    X3        HiGHS_R8  -4
    X3        HiGHS_R14  -1
    X3        HiGHS_R15  1
    X3        HiGHS_R16  1
    X3        HiGHS_R22  1
    X6        HiGHS_R2  -1
    X6        HiGHS_R8  -9999
    X6        HiGHS_R24  -1
    X6        HiGHS_R25  1
    X6        HiGHS_R26  1
    X6        HiGHS_R32  1
    X1        HiGHS_R4  -1
    X1        HiGHS_R5  1
    X1        HiGHS_R6  -1
    X1        HiGHS_R7  1
    X1        HiGHS_R8  -1
    X1        HiGHS_R11  1
    X4        HiGHS_R6  -1
    X4        HiGHS_R8  -2
    X4        HiGHS_R17  -1
    X4        HiGHS_R18  1
    X4        HiGHS_R19  1
    X4        HiGHS_R22  1
    X7        HiGHS_R6  -1
    X7        HiGHS_R8  -3
    X7        HiGHS_R27  -1
    X7        HiGHS_R28  1
    X7        HiGHS_R29  1
    X7        HiGHS_R32  1
    X8        HiGHS_R8  -3
    X8        HiGHS_R12  -1
    X8        HiGHS_R30  -1
    X8        HiGHS_R31  1
    X8        HiGHS_R32  1
    X8        HiGHS_R33  1
    X5        HiGHS_R8  -4
    X5        HiGHS_R12  -1
    X5        HiGHS_R20  -1
    X5        HiGHS_R21  1
    X5        HiGHS_R22  1
    X5        HiGHS_R23  1
    X2        HiGHS_R8  -9999
    X2        HiGHS_R9  -1
    X2        HiGHS_R10  1
    X2        HiGHS_R11  1
    X2        HiGHS_R12  -1
    X2        HiGHS_R13  1
    MARK0001  'MARKER'                 'INTEND'
RHS
    RHS_V     HiGHS_R0  -5
    RHS_V     HiGHS_R2  -7
    RHS_V     HiGHS_R4  -3
    RHS_V     HiGHS_R6  -3
    RHS_V     HiGHS_R9  -5
    RHS_V     HiGHS_R11  5
    RHS_V     HiGHS_R12  -5
    RHS_V     HiGHS_R14  -7
    RHS_V     HiGHS_R17  -3
    RHS_V     HiGHS_R20  -5
    RHS_V     HiGHS_R22  7
    RHS_V     HiGHS_R24  -3
    RHS_V     HiGHS_R27  -3
    RHS_V     HiGHS_R30  -3
    RHS_V     HiGHS_R32  3
    RHS_V     HiGHS_R34  -80082
BOUNDS
 UI BOUND     X9        80082
 UI BOUND     X0        5
 UI BOUND     X3        7
 UI BOUND     X6        3
 UI BOUND     X1        3
 UI BOUND     X4        3
 UI BOUND     X7        3
 UI BOUND     X8        3
 UI BOUND     X5        5
 UI BOUND     X2        5
ENDATA
